c FILE /home/rafael/Documents/HappySet/MIHS/inputs/happygen/output/graph_scale_free_k4_p0.2_v50_20241127_082425.txt
c SOURCE This is a scale-free graph formed for the happy graph colouring problem.
c DESCRIPTION It was generated using the problem generator of Rhyd Lewis
c
c GRAPH STATS
c Seed                             = 1111048220
c Number of Nodes                  = 50
c Number of colours k              = 4
c Number of pre-assignments        = 10
c Number of links per new node     = 5
c Density                          = 0.191837
c 
c The degrees of nodes 1 to 50, respectively, are as follows 
c [27, 23, 22, 21, 17, 17, 16, 16, 15, 14, 13, 13, 12, 12, 11, 11, 11, 10, 10, 9, 9, 9, 7, 6, 6, 6, 
c  6, 6, 6, 6, 6, 6, 6, 5, 5, 5, 5, 5, 5, 5, 5, 5, 5, 5, 5, 5, 5, 5, 5, 5] 
c  
p edge 50 235 4
e 1 2
e 1 3
e 1 4
e 1 5
e 1 6
e 1 7
e 1 8
e 1 10
e 1 11
e 1 12
e 1 14
e 1 15
e 1 17
e 1 18
e 1 23
e 1 25
e 1 27
e 1 32
e 1 35
e 1 36
e 1 37
e 1 40
e 1 42
e 1 43
e 1 44
e 1 46
e 1 47
e 2 3
e 2 4
e 2 8
e 2 12
e 2 14
e 2 16
e 2 18
e 2 19
e 2 21
e 2 22
e 2 24
e 2 26
e 2 27
e 2 29
e 2 33
e 2 38
e 2 39
e 2 42
e 2 43
e 2 45
e 2 46
e 2 49
e 3 4
e 3 5
e 3 6
e 3 7
e 3 8
e 3 15
e 3 16
e 3 19
e 3 20
e 3 21
e 3 24
e 3 27
e 3 30
e 3 32
e 3 34
e 3 36
e 3 39
e 3 41
e 3 42
e 3 44
e 4 5
e 4 6
e 4 7
e 4 8
e 4 10
e 4 11
e 4 12
e 4 15
e 4 16
e 4 18
e 4 20
e 4 24
e 4 28
e 4 34
e 4 38
e 4 40
e 4 48
e 4 49
e 5 6
e 5 7
e 5 9
e 5 10
e 5 11
e 5 12
e 5 15
e 5 17
e 5 20
e 5 23
e 5 31
e 5 39
e 5 42
e 5 43
e 6 7
e 6 8
e 6 11
e 6 12
e 6 14
e 6 15
e 6 25
e 6 26
e 6 29
e 6 30
e 6 38
e 6 45
e 6 47
e 7 8
e 7 9
e 7 10
e 7 13
e 7 16
e 7 18
e 7 19
e 7 22
e 7 25
e 7 29
e 7 41
e 8 9
e 8 11
e 8 12
e 8 13
e 8 21
e 8 26
e 8 29
e 8 31
e 8 35
e 8 49
e 9 10
e 9 13
e 9 15
e 9 26
e 9 27
e 9 28
e 9 29
e 9 31
e 9 33
e 9 38
e 9 45
e 9 46
e 10 16
e 10 18
e 10 32
e 10 34
e 10 35
e 10 36
e 10 39
e 10 46
e 10 50
e 11 14
e 11 17
e 11 22
e 11 24
e 11 25
e 11 34
e 11 43
e 11 48
e 12 14
e 12 24
e 12 25
e 12 36
e 12 37
e 12 40
e 12 47
e 13 15
e 13 16
e 13 19
e 13 26
e 13 27
e 13 31
e 13 33
e 13 47
e 13 48
e 14 17
e 14 22
e 14 35
e 14 38
e 14 41
e 14 46
e 14 50
e 15 18
e 15 21
e 15 30
e 15 37
e 16 20
e 16 23
e 16 30
e 16 35
e 16 50
e 17 18
e 17 21
e 17 40
e 17 41
e 17 43
e 17 47
e 17 48
e 18 19
e 18 28
e 18 33
e 19 20
e 19 36
e 19 37
e 19 44
e 19 49
e 20 22
e 20 41
e 20 42
e 20 44
e 21 28
e 21 32
e 21 33
e 21 37
e 22 23
e 22 28
e 22 30
e 22 40
e 23 27
e 23 31
e 23 32
e 24 45
e 25 39
e 26 34
e 28 49
e 29 48
e 30 45
e 31 50
e 32 44
e 33 50
n 3 3
n 10 3
n 12 1
n 16 3
n 17 2
n 27 3
n 31 4
n 33 3
n 34 3
n 37 1
